words_hard_train/4131.qaiger
aag 122 16 0 1 106
2
4
8
16
28
38
46
56
64
72
130
138
168
176
204
206
245
6 2 4
10 2 8
12 3 9
14 11 13
18 15 17
20 14 16
22 19 21
24 6 22
26 25 21
30 13 28
32 12 29
34 31 33
36 27 34
40 37 39
42 26 35
44 41 43
48 33 46
50 32 47
52 49 51
54 45 53
58 55 56
60 44 52
62 59 61
66 51 64
68 50 65
70 67 69
74 71 73
76 70 72
78 75 77
80 62 79
82 63 78
84 81 83
86 85 73
88 4 38
90 88 16
92 90 72
94 92 56
96 87 95
98 55 61
100 99 57
102 37 43
104 103 91
106 7 23
108 107 25
110 109 17
112 105 111
114 103 38
116 113 115
118 116 98
120 101 119
122 84 72
124 121 123
126 96 125
128 83 77
132 69 130
134 68 131
136 133 135
140 137 139
142 136 138
144 141 143
146 128 145
148 129 144
150 147 149
152 95 139
154 94 138
156 153 155
158 150 156
160 127 159
162 151 157
164 161 163
166 149 143
170 135 168
172 134 169
174 171 173
178 175 177
180 174 176
182 179 181
184 166 183
186 167 182
188 185 187
190 155 177
192 154 176
194 191 193
196 188 194
198 165 197
200 189 195
202 199 201
208 204 206
210 205 207
212 209 211
214 212 173
216 213 172
218 215 217
220 187 181
222 219 221
224 218 220
226 223 225
228 202 226
230 192 207
232 228 231
234 193 206
236 235 229
238 233 237
240 203 227
242 240 231
244 239 243
i0 2 y2[0]
i1 1 x2[0]
i2 2 y2[1]
i3 1 x2[1]
i4 2 y2[2]
i5 1 x2[2]
i6 2 y2[3]
i7 1 x2[3]
i8 2 y2[4]
i9 1 x2[4]
i10 2 y2[5]
i11 1 x2[5]
i12 2 y2[6]
i13 1 x2[6]
i14 2 y2[7]
i15 1 x2[7]
o0 bv[0]
c
simplified
  <
    or
      1
      subtract
        1 x2
        2 y2
    invert
      1 x2
