words_hard_train/4131.qaiger.qdimacs
p cnf 122 319
a 2 36 69 103 8 19 88 28 0
e 1 3 4 5 6 7 9 10 11 12 13 14 15 16 17 18 20 21 22 23 24 25 26 27 29 30 31 32 33 34 35 37 38 39 40 41 42 43 44 45 46 47 48 49 50 51 52 53 54 55 56 57 58 59 60 61 62 63 64 65 66 67 68 70 71 72 73 74 75 76 77 78 79 80 81 82 83 84 85 86 87 89 90 91 92 93 94 95 96 97 98 99 100 101 102 104 105 106 107 108 109 110 111 112 113 114 115 116 117 118 119 120 121 122 0
-1 -2 3 0
1 -3 0
2 -3 0
-1 -4 5 0
1 -5 0
4 -5 0
1 4 6 0
-1 -6 0
-4 -6 0
5 6 7 0
-5 -7 0
-6 -7 0
7 8 9 0
-7 -9 0
-8 -9 0
-7 -8 10 0
7 -10 0
8 -10 0
9 10 11 0
-9 -11 0
-10 -11 0
-3 -11 12 0
3 -12 0
11 -12 0
12 10 13 0
-12 -13 0
-10 -13 0
6 -14 15 0
-6 -15 0
14 -15 0
-6 14 16 0
6 -16 0
-14 -16 0
15 16 17 0
-15 -17 0
-16 -17 0
13 -17 18 0
-13 -18 0
17 -18 0
18 19 20 0
-18 -20 0
-19 -20 0
-13 17 21 0
13 -21 0
-17 -21 0
20 21 22 0
-20 -22 0
-21 -22 0
16 -23 24 0
-16 -24 0
23 -24 0
-16 23 25 0
16 -25 0
-23 -25 0
24 25 26 0
-24 -26 0
-25 -26 0
22 26 27 0
-22 -27 0
-26 -27 0
27 -28 29 0
-27 -29 0
28 -29 0
-22 -26 30 0
22 -30 0
26 -30 0
29 30 31 0
-29 -31 0
-30 -31 0
25 -32 33 0
-25 -33 0
32 -33 0
-25 32 34 0
25 -34 0
-32 -34 0
33 34 35 0
-33 -35 0
-34 -35 0
35 36 37 0
-35 -37 0
-36 -37 0
-35 -36 38 0
35 -38 0
36 -38 0
37 38 39 0
-37 -39 0
-38 -39 0
-31 39 40 0
31 -40 0
-39 -40 0
31 -39 41 0
-31 -41 0
39 -41 0
40 41 42 0
-40 -42 0
-41 -42 0
42 36 43 0
-42 -43 0
-36 -43 0
-2 -19 44 0
2 -44 0
19 -44 0
-44 -8 45 0
44 -45 0
8 -45 0
-45 -36 46 0
45 -46 0
36 -46 0
-46 -28 47 0
46 -47 0
28 -47 0
43 47 48 0
-43 -48 0
-47 -48 0
27 30 49 0
-27 -49 0
-30 -49 0
49 28 50 0
-49 -50 0
-28 -50 0
18 21 51 0
-18 -51 0
-21 -51 0
51 45 52 0
-51 -52 0
-45 -52 0
3 11 53 0
-3 -53 0
-11 -53 0
53 12 54 0
-53 -54 0
-12 -54 0
54 8 55 0
-54 -55 0
-8 -55 0
52 55 56 0
-52 -56 0
-55 -56 0
51 -19 57 0
-51 -57 0
19 -57 0
56 57 58 0
-56 -58 0
-57 -58 0
-58 -49 59 0
58 -59 0
49 -59 0
50 59 60 0
-50 -60 0
-59 -60 0
-42 -36 61 0
42 -61 0
36 -61 0
60 61 62 0
-60 -62 0
-61 -62 0
-48 62 63 0
48 -63 0
-62 -63 0
41 38 64 0
-41 -64 0
-38 -64 0
34 -65 66 0
-34 -66 0
65 -66 0
-34 65 67 0
34 -67 0
-65 -67 0
66 67 68 0
-66 -68 0
-67 -68 0
68 69 70 0
-68 -70 0
-69 -70 0
-68 -69 71 0
68 -71 0
69 -71 0
70 71 72 0
-70 -72 0
-71 -72 0
-64 72 73 0
64 -73 0
-72 -73 0
64 -72 74 0
-64 -74 0
72 -74 0
73 74 75 0
-73 -75 0
-74 -75 0
47 69 76 0
-47 -76 0
-69 -76 0
-47 -69 77 0
47 -77 0
69 -77 0
76 77 78 0
-76 -78 0
-77 -78 0
-75 -78 79 0
75 -79 0
78 -79 0
63 79 80 0
-63 -80 0
-79 -80 0
75 78 81 0
-75 -81 0
-78 -81 0
80 81 82 0
-80 -82 0
-81 -82 0
74 71 83 0
-74 -83 0
-71 -83 0
67 -84 85 0
-67 -85 0
84 -85 0
-67 84 86 0
67 -86 0
-84 -86 0
85 86 87 0
-85 -87 0
-86 -87 0
87 88 89 0
-87 -89 0
-88 -89 0
-87 -88 90 0
87 -90 0
88 -90 0
89 90 91 0
-89 -91 0
-90 -91 0
-83 91 92 0
83 -92 0
-91 -92 0
83 -91 93 0
-83 -93 0
91 -93 0
92 93 94 0
-92 -94 0
-93 -94 0
77 88 95 0
-77 -95 0
-88 -95 0
-77 -88 96 0
77 -96 0
88 -96 0
95 96 97 0
-95 -97 0
-96 -97 0
-94 -97 98 0
94 -98 0
97 -98 0
82 98 99 0
-82 -99 0
-98 -99 0
94 97 100 0
-94 -100 0
-97 -100 0
99 100 101 0
-99 -101 0
-100 -101 0
-102 -103 104 0
102 -104 0
103 -104 0
102 103 105 0
-102 -105 0
-103 -105 0
104 105 106 0
-104 -106 0
-105 -106 0
-106 86 107 0
106 -107 0
-86 -107 0
106 -86 108 0
-106 -108 0
86 -108 0
107 108 109 0
-107 -109 0
-108 -109 0
93 90 110 0
-93 -110 0
-90 -110 0
109 110 111 0
-109 -111 0
-110 -111 0
-109 -110 112 0
109 -112 0
110 -112 0
111 112 113 0
-111 -113 0
-112 -113 0
-101 -113 114 0
101 -114 0
113 -114 0
-96 103 115 0
96 -115 0
-103 -115 0
-114 115 116 0
114 -116 0
-115 -116 0
96 -103 117 0
-96 -117 0
103 -117 0
117 114 118 0
-117 -118 0
-114 -118 0
116 118 119 0
-116 -119 0
-118 -119 0
101 113 120 0
-101 -120 0
-113 -120 0
-120 115 121 0
120 -121 0
-115 -121 0
119 121 122 0
-119 -122 0
-121 -122 0
-122 0
